HmaxDs = 0.500000
HmaxUB_percent = 1.121549
HmaxUB_real = 2353.078144
FTnetDs = 0.500000
FTnetUB_percent = 2.079033
FTnetUB_real = 2990.501858
TIFgap = 0.200000
LimCIPF = 69.2718936
SCIP version 1.1.0 [precision: 8 byte] [memory: block] [mode: optimized] [LP solver: Clp 1.8.2]
Copyright (c) 2002-2008 Konrad-Zuse-Zentrum fuer Informationstechnik Berlin (ZIB)

reading user parameter file </home/fabio/docs/hierarquia/models/scip.set>

read problem <data.N30.I1.s1.cluster5.T4.GL2.W2.TIFgap0.2.mps.gz>
============

original problem has 155 variables (78 bin, 0 int, 0 impl, 77 cont) and 91 constraints

solve problem
=============

presolving:
(round 1) 3 del vars, 3 del conss, 16 chg bounds, 0 chg sides, 18 chg coeffs, 0 upgd conss, 0 impls, 24 clqs
(round 2) 5 del vars, 3 del conss, 16 chg bounds, 1 chg sides, 18 chg coeffs, 0 upgd conss, 0 impls, 24 clqs
(round 3) 5 del vars, 3 del conss, 16 chg bounds, 3 chg sides, 18 chg coeffs, 0 upgd conss, 0 impls, 24 clqs
(round 4) 5 del vars, 4 del conss, 16 chg bounds, 3 chg sides, 18 chg coeffs, 25 upgd conss, 0 impls, 24 clqs
(round 5) 32 del vars, 4 del conss, 26 chg bounds, 3 chg sides, 18 chg coeffs, 25 upgd conss, 496 impls, 16 clqs
(round 6) 32 del vars, 12 del conss, 26 chg bounds, 6 chg sides, 20 chg coeffs, 25 upgd conss, 496 impls, 16 clqs
presolving (7 rounds):
 32 deleted vars, 12 deleted constraints, 26 tightened bounds, 0 added holes, 6 changed sides, 20 changed coefficients
 496 implications, 16 cliques
presolved problem has 123 variables (51 bin, 0 int, 0 impl, 72 cont) and 79 constraints
      1 constraints of type <knapsack>
     16 constraints of type <setppc>
     62 constraints of type <linear>
Presolving Time: 0.02

 time | node  | left  |LP iter| mem |mdpt |frac |vars |cons |ccons|cols |rows |cuts |confs|strbr|  dualbound   | primalbound  |  gap   
  0.0s|     1 |     0 |    58 | 458k|   0 |  21 | 123 |  79 |  79 | 123 |  79 |   0 |   0 |   0 | 5.170449e+01 |      --      |    Inf 
F 0.0s|     1 |     0 |   147 | 465k|   0 |   0 | 123 |  79 |  79 | 123 |  79 |   0 |   0 |   0 | 5.170449e+01 | 2.974105e+02 | 475.21%
  0.1s|     1 |     2 |   147 | 463k|   0 |  21 | 123 |  79 |  79 | 123 |  79 |   0 |   0 |   0 | 5.170449e+01 | 2.974105e+02 | 475.21%

SCIP Status        : solving was interrupted [solution limit reached]
Solving Time (sec) : 0.05
Solving Nodes      : 1
Primal Bound       : +2.97410499925425e+02 (1 solutions)
Dual Bound         : +5.17044856827820e+01
Gap                : 475.21 %

primal solution:
================

objective value:                     297.410499925425
b[1,1,2,1]                                          1 	(obj:0)
b[1,1,2,2]                                          1 	(obj:0)
b[1,1,4,1]                           1.00000000000079 	(obj:0)
b[3,2,1,1]                                          1 	(obj:0)
b[2,2,1,2]                                          1 	(obj:0)
b[1,2,3,1]                                          1 	(obj:0)
b[2,2,3,2]                                          1 	(obj:0)
b[3,3,2,1]                                          1 	(obj:0)
b[4,4,1,1]                                          1 	(obj:0)
h[1,2]                                              1 	(obj:0)
h[1,4]                                              1 	(obj:0)
h[2,3]                                              1 	(obj:0)
qw[1,4,2,1]                              0.0185246141 	(obj:0)
qw[2,1,2,2]                              0.9806097001 	(obj:0)
qw[1,2,3,2]                               0.040271744 	(obj:0)
qw[1,4,3,1]                              0.0353680646 	(obj:0)
qw[3,1,3,1]                                         1 	(obj:0)
qw[1,2,4,2]                        0.0100640992999999 	(obj:0)
qw[1,3,4,1]                              0.0537846609 	(obj:0)
qw[4,1,4,1]                                         1 	(obj:0)
qw[1,2,1,2]                              0.3373020791 	(obj:0)
qw[1,3,1,1]                              0.3206057024 	(obj:0)
qw[2,3,2,2]                              0.0193902999 	(obj:0)
qw[1,4,1,1]                              0.3420922185 	(obj:0)
CIPF                                          64.7596 	(obj:0)
CustoTrafRetr                        232.650899925425 	(obj:0)
TotalTrancpt                         7.00000000000079 	(obj:0)
CustoTotal                           297.410499925425 	(obj:0)
Obj                                  297.410499925425 	(obj:1)

Statistics
==========

SCIP Status        : solving was interrupted [solution limit reached]
Solving Time       :       0.05
Original Problem   :
  Problem name     : labtel
  Variables        : 155 (78 binary, 0 integer, 0 implicit integer, 77 continuous)
  Constraints      : 91 initial, 91 maximal
Presolved Problem  :
  Problem name     : t_labtel
  Variables        : 123 (51 binary, 0 integer, 0 implicit integer, 72 continuous)
  Constraints      : 79 initial, 79 maximal
Presolvers         :       Time  FixedVars   AggrVars   ChgTypes  ChgBounds   AddHoles    DelCons   ChgSides   ChgCoefs
  trivial          :       0.00          0          0          0          0          0          0          0          0
  dualfix          :       0.00          0          0          0          0          0          0          0          0
  boundshift       :       0.00          0          0          0          0          0          0          0          0
  inttobinary      :       0.00          0          0          0          0          0          0          0          0
  implics          :       0.00          0          0          0          0          0          0          0          0
  probing          :       0.01         27          0          0         10          0          0          0          0
  knapsack         :       0.00          0          0          0          0          0          0          0          0
  setppc           :       0.00          0          0          0          0          0          8          0          0
  linear           :       0.00          0          5          0         16          0          4          6         20
  root node        :          -          0          -          -          0          -          -          -          -
Constraints        :     Number  #Separate #Propagate    #EnfoLP    #EnfoPS    Cutoffs    DomReds       Cuts      Conss   Children
  integral         :          0          0          0          1          0          0          0          0          0          2
  knapsack         :          1          0        194          0          0          0          0          0          0          0
  setppc           :         16          0        194          0          0          0          0          0          0          0
  linear           :         62          0        194          0          0          2          0          0          0          0
  countsols        :          0          0          0          0          0          0          0          0          0          0
Constraint Timings :  TotalTime   Separate  Propagate     EnfoLP     EnfoPS
  integral         :       0.00       0.00       0.00       0.00       0.00
  knapsack         :       0.00       0.00       0.00       0.00       0.00
  setppc           :       0.00       0.00       0.00       0.00       0.00
  linear           :       0.01       0.00       0.01       0.00       0.00
  countsols        :       0.00       0.00       0.00       0.00       0.00
Propagators        :       Time      Calls    Cutoffs    DomReds
  rootredcost      :       0.00          0          0          0
  pseudoobj        :       0.00          2          0          0
Conflict Analysis  :       Time      Calls    Success  Conflicts   Literals    Reconvs ReconvLits   LP Iters
  propagation      :       0.00          0          0          0        0.0          0        0.0          -
  infeasible LP    :       0.00          0          0          0        0.0          0        0.0          0
  bound exceed. LP :       0.00          0          0          0        0.0          0        0.0          0
  strong branching :       0.00          0          0          0        0.0          0        0.0          0
  pseudo solution  :       0.00          0          0          0        0.0          0        0.0          -
  applied globally :          -          -          -          0        0.0          -          -          -
  applied locally  :          -          -          -          0        0.0          -          -          -
Separators         :       Time      Calls    Cutoffs    DomReds       Cuts      Conss
  cut pool         :       0.00          0          -          -          0          -    (maximal pool size: 0)
  redcost          :       0.00          0          0          0          0          0
  impliedbounds    :       0.00          0          0          0          0          0
  intobj           :       0.00          0          0          0          0          0
  gomory           :       0.00          0          0          0          0          0
  strongcg         :       0.00          0          0          0          0          0
  cmir             :       0.00          0          0          0          0          0
  flowcover        :       0.00          0          0          0          0          0
  clique           :       0.00          0          0          0          0          0
  zerohalf         :       0.00          0          0          0          0          0
  mcf              :       0.00          0          0          0          0          0
Pricers            :       Time      Calls       Vars
  problem variables:       0.00          0          0
Branching Rules    :       Time      Calls    Cutoffs    DomReds       Cuts      Conss   Children
  relpscost        :       0.00          1          0          0          0          0          2
  pscost           :       0.00          0          0          0          0          0          0
  inference        :       0.00          0          0          0          0          0          0
  mostinf          :       0.00          0          0          0          0          0          0
  leastinf         :       0.00          0          0          0          0          0          0
  fullstrong       :       0.00          0          0          0          0          0          0
  allfullstrong    :       0.00          0          0          0          0          0          0
  random           :       0.00          0          0          0          0          0          0
Primal Heuristics  :       Time      Calls      Found
  LP solutions     :       0.00          -          0
  pseudo solutions :       0.00          -          0
  simplerounding   :       0.00          0          0
  rounding         :       0.00          1          0
  shifting         :       0.00          1          0
  intshifting      :       0.00          1          0
  oneopt           :       0.00          1          0
  fixandinfer      :       0.00          0          0
  feaspump         :       0.00          1          1
  coefdiving       :       0.00          0          0
  pscostdiving     :       0.00          0          0
  fracdiving       :       0.00          0          0
  veclendiving     :       0.00          0          0
  intdiving        :       0.00          0          0
  actconsdiving    :       0.00          0          0
  objpscostdiving  :       0.00          0          0
  rootsoldiving    :       0.00          0          0
  linesearchdiving :       0.00          0          0
  guideddiving     :       0.00          0          0
  octane           :       0.00          0          0
  rens             :       0.01          1          0
  rins             :       0.00          0          0
  localbranching   :       0.00          0          0
  mutation         :       0.00          0          0
  crossover        :       0.00          0          0
  dins             :       0.00          0          0
LP                 :       Time      Calls Iterations  Iter/call   Iter/sec
  primal LP        :       0.00          0          0       0.00          -
  dual LP          :       0.01          1         58      58.00          -
  barrier LP       :       0.00          0          0       0.00          -
  diving/probing LP:       0.00          9         89       9.89          -
  strong branching :       0.00          0          0       0.00          -
    (at root node) :          -          0          0       0.00          -
  conflict analysis:       0.00          0          0       0.00          -
B&B Tree           :
  number of runs   :          1
  nodes            :          1
  nodes (total)    :          1
  nodes left       :          2
  max depth        :          0
  max depth (total):          0
  backtracks       :          0 (0.0%)
  delayed cutoffs  :          0
  repropagations   :          0 (0 domain reductions, 0 cutoffs)
  avg switch length:       1.00
  switching time   :       0.00
Solution           :
  Solutions found  :          1 (1 improvements)
  Primal Bound     : +2.97410499925425e+02   (in run 1, after 1 nodes, 0.03 seconds, depth 0, found by <feaspump>)
  Dual Bound       : +5.17044856827820e+01
  Gap              :     475.21 %
  Root Dual Bound  : +5.17044856827820e+01
Reading model section from /home/fabio/docs/hierarquia/models/calc-cong.mod...
129 lines were read
Reading data section from data.N30.I1.s1.cluster5.T4.GL2.W2.TIFgap0.2.sol...
67 lines were read

Display statement at line 45
A[1] = 4196.12
A[2] = 1451.566
A[3] = 1441.2239
A[4] = 1515.2573

Display statement at line 48
LigLog[1,2] = 1
LigLog[1,3] = 1
LigLog[1,4] = 1
LigLog[2,1] = 1
LigLog[2,3] = 1
LigLog[3,1] = 1
LigLog[4,1] = 1

Display statement at line 51
TrafMedio[1,2] = 1488.65030003282
TrafMedio[1,3] = 1426.79760001144
TrafMedio[1,4] = 1513.32299988116
TrafMedio[2,1] = 1423.41969993536
TrafMedio[2,3] = 28.1463000646434
TrafMedio[3,1] = 1441.2239
TrafMedio[4,1] = 1515.2573

Congestionamento: 1515.2573

MTB: 2098.06

Model has been successfully generated
